Cost: 410
0-12-37-15-33-39-10-9-38-5-0
0-14-25-24-43-23-7-26-8-27-0
0-11-2-29-20-35-3-22-1-32-0
0-17-44-42-19-40-41-13-18-0
Cost: 410
0-14-25-24-43-23-7-26-8-27-0
0-17-44-42-19-40-41-13-18-0
0-32-1-22-3-35-20-29-2-11-0
0-12-37-15-33-39-10-9-38-5-0
Cost: 410
0-12-37-15-33-39-10-9-38-5-0
0-14-25-24-43-23-7-26-8-27-0
0-11-2-29-20-35-3-22-1-32-0
0-17-44-42-19-40-41-13-18-0
Cost: 410
0-5-38-9-10-39-33-15-37-12-0
0-32-1-22-28-3-35-20-2-11-0
0-27-8-26-7-23-43-24-25-14-0
0-17-44-42-19-40-41-13-18-0
Cost: 410
0-18-13-41-40-19-42-44-17-0
0-27-8-26-7-23-43-24-25-14-0
0-11-2-29-20-35-3-22-1-32-0
0-5-38-9-10-39-33-15-37-12-0
Cost: 410
0-14-25-24-43-23-7-26-8-27-0
0-11-2-20-35-3-28-22-1-32-0
0-17-44-42-19-40-41-13-18-0
0-5-38-9-10-39-33-15-37-12-0
Cost: 410
0-18-13-41-40-19-42-44-17-0
0-32-1-22-28-3-35-20-2-11-0
0-14-25-24-43-23-7-26-8-27-0
0-12-37-15-33-39-10-9-38-5-0
Cost: 410
0-18-13-41-40-19-42-44-17-0
0-32-1-22-28-3-35-20-2-11-0
0-14-25-24-43-23-7-26-8-27-0
0-12-37-15-33-39-10-9-38-5-0
Cost: 410
0-18-13-41-40-19-42-44-17-0
0-32-1-22-28-3-35-20-2-11-0
0-14-25-24-43-23-7-26-8-27-0
0-12-37-15-33-39-10-9-38-5-0
Cost: 410
0-18-13-41-40-19-42-44-17-0
0-32-1-22-28-3-35-20-2-11-0
0-14-25-24-43-23-7-26-8-27-0
0-12-37-15-33-39-10-9-38-5-0
Cost: 410
0-17-44-42-19-40-41-13-18-0
0-32-1-22-28-3-35-20-2-11-0
0-14-25-24-43-23-7-26-8-27-0
0-5-38-9-10-39-33-15-37-12-0
Cost: 410
0-17-44-42-19-40-41-13-18-0
0-32-1-22-28-3-35-20-2-11-0
0-14-25-24-43-23-7-26-8-27-0
0-5-38-9-10-39-33-15-37-12-0
Cost: 410
0-17-44-42-19-40-41-13-18-0
0-32-1-22-28-3-35-20-2-11-0
0-14-25-24-43-23-7-26-8-27-0
0-5-38-9-10-39-33-15-37-12-0
Cost: 410
0-17-44-42-19-40-41-13-18-0
0-32-1-22-28-3-35-20-2-11-0
0-14-25-24-43-23-7-26-8-27-0
0-5-38-9-10-39-33-15-37-12-0
Cost: 410
0-17-44-42-19-40-41-13-18-0
0-32-1-22-28-3-35-20-2-11-0
0-14-25-24-43-23-7-26-8-27-0
0-5-38-9-10-39-33-15-37-12-0
Cost: 410
0-17-44-42-19-40-41-13-18-0
0-32-1-22-28-3-35-20-2-11-0
0-14-25-24-43-23-7-26-8-27-0
0-5-38-9-10-39-33-15-37-12-0
Cost: 410
0-17-44-42-19-40-41-13-18-0
0-32-1-22-28-3-35-20-2-11-0
0-14-25-24-43-23-7-26-8-27-0
0-5-38-9-10-39-33-15-37-12-0
Cost: 410
0-17-44-42-19-40-41-13-18-0
0-32-1-22-28-3-35-20-2-11-0
0-14-25-24-43-23-7-26-8-27-0
0-5-38-9-10-39-33-15-37-12-0
Cost: 410
0-17-44-42-19-40-41-13-18-0
0-32-1-22-28-3-35-20-2-11-0
0-14-25-24-43-23-7-26-8-27-0
0-5-38-9-10-39-33-15-37-12-0
Cost: 410
0-17-44-42-19-40-41-13-18-0
0-32-1-22-28-3-35-20-2-11-0
0-14-25-24-43-23-7-26-8-27-0
0-5-38-9-10-39-33-15-37-12-0
Cost: 410
0-17-44-42-19-40-41-13-18-0
0-32-1-22-28-3-35-20-2-11-0
0-14-25-24-43-23-7-26-8-27-0
0-5-38-9-10-39-33-15-37-12-0
Cost: 410
0-17-44-42-19-40-41-13-18-0
0-32-1-22-28-3-35-20-2-11-0
0-14-25-24-43-23-7-26-8-27-0
0-5-38-9-10-39-33-15-37-12-0
Cost: 410
0-5-38-9-10-39-33-15-37-12-0
0-14-25-24-43-23-7-26-8-27-0
0-18-13-41-40-19-42-44-17-0
0-11-2-20-35-3-28-22-1-32-0
Cost: 410
0-17-44-42-19-40-41-13-18-0
0-32-1-22-28-3-35-20-2-11-0
0-14-25-24-43-23-7-26-8-27-0
0-5-38-9-10-39-33-15-37-12-0
Cost: 410
0-17-44-42-19-40-41-13-18-0
0-32-1-22-28-3-35-20-2-11-0
0-14-25-24-43-23-7-26-8-27-0
0-5-38-9-10-39-33-15-37-12-0
Cost: 410
0-17-44-42-19-40-41-13-18-0
0-32-1-22-28-3-35-20-2-11-0
0-14-25-24-43-23-7-26-8-27-0
0-5-38-9-10-39-33-15-37-12-0
Cost: 410
0-12-37-15-33-39-10-9-38-5-0
0-11-2-29-20-35-3-22-1-32-0
0-27-8-26-7-23-43-24-25-14-0
0-17-44-42-40-19-41-13-18-0
Cost: 410
0-27-8-26-7-23-43-24-25-14-0
0-32-1-22-3-35-20-29-2-11-0
0-18-13-41-40-19-42-44-17-0
0-5-38-9-10-39-33-15-37-12-0
Cost: 410
0-17-44-42-40-19-41-13-18-0
0-32-1-22-3-35-20-29-2-11-0
0-12-37-15-33-39-10-9-38-5-0
0-27-8-26-7-23-43-24-25-14-0
Cost: 410
0-11-2-29-20-35-3-22-1-32-0
0-14-25-24-43-23-7-26-8-27-0
0-5-38-9-10-39-33-15-37-12-0
0-18-13-41-40-19-42-44-17-0
Cost: 410
0-14-25-24-43-23-7-26-8-27-0
0-17-44-42-19-40-41-13-18-0
0-12-37-15-33-39-10-9-38-5-0
0-32-1-22-3-35-20-29-2-11-0
